SCIP version 5.0.0 [precision: 8 byte] [memory: block] [mode: optimized] [LP solver: NONE] [GitHash: 3bbd232]
Copyright (C) 2002-2017 Konrad-Zuse-Zentrum fuer Informationstechnik Berlin (ZIB)

External codes: 
  Readline EditLine w  GNU library for command line editing (gnu.org/s/readline)
  CppAD 20160000.1     Algorithmic Differentiation of C++ algorithms developed by B. Bell (www.coin-or.org/CppAD)
  ZLIB 1.2.5           General purpose compression library by J. Gailly and M. Adler (zlib.net)
  GMP 6.1.2            GNU Multiple Precision Arithmetic Library developed by T. Granlund (gmplib.org)

user parameter file <scip.set> not found - using default parameters

read problem <../../Split_data/output/statG/9/1_sample_statG.logreg>
============

File name	:	../../Split_data/output/statG/9/1_sample_statG.logreg
Problem name 	:	1_sample_statG
Number of data	:	800
Number of var	:	61
The given data has linear dependence
13 sets of column vector are linearly dependent:

[dim=1] time: 0.034419
[dim=2] time: 0.074483
[dim=3] time: 0.113944
[dim=4] time: 0.153046
[dim=5] time: 0.191923
[dim=6] time: 0.231961
[dim=7] time: 0.272728
[dim=8] time: 0.314128
[dim=9] time: 0.355701
[dim=10] time: 0.39666
[dim=11] time: 0.43762
[dim=12] time: 0.47696
[dim=13] time: 0.516649
[dim=14] time: 0.555915
[dim=15] time: 0.595347
[dim=16] time: 0.633379
[dim=17] time: 0.672493
[dim=18] time: 0.717443
[dim=19] time: 0.763556
[dim=20] time: 0.800543
[dim=21] time: 0.836339
[dim=22] time: 0.872349
[dim=23] time: 0.90889
[dim=24] time: 0.943575
[dim=25] Time of forward = 0.976842sec.
AIC: 776.837
k: 24

[dim=48] time: 0.101102
[dim=47] time: 0.182066
[dim=46] time: 0.261377
[dim=45] time: 0.338883
[dim=44] time: 0.399387
[dim=43] time: 0.45748
[dim=42] time: 0.533516
[dim=41] time: 0.594706
[dim=40] time: 0.647581
[dim=39] time: 0.695783
[dim=38] time: 0.741111
[dim=37] time: 0.798028
[dim=36] time: 0.84928
[dim=35] time: 0.894102
[dim=34] time: 0.935372
[dim=33] time: 0.980794
[dim=32] time: 1.02045
[dim=31] time: 1.05358
[dim=30] time: 1.1019
[dim=29] time: 1.14646
[dim=28] time: 1.17725
[dim=27] time: 1.20864
[dim=26] time: 1.24518
[dim=25] time: 1.27683
[dim=24] time: 1.30561
[dim=23] Time of backward = 1.3347sec.
AIC: 781.544
k: 24
